<number of tasks>
109
<number of stations>
12
<task times>
1 24
2 24
3 74
4 5
5 23
6 12
7 90
8 5
9 26
10 101
11 12
12 19
13 19
14 7
15 7
16 32
17 32
18 11
19 11
20 14
21 7
22 8
23 8
24 15
25 10
26 14
27 23
28 50
29 42
30 23
31 23
32 11
33 30
34 58
35 12
36 16
37 16
38 30
39 15
40 16
41 15
42 16
43 15
44 71
45 57
46 9
47 100
48 20
49 15
50 11
51 31
52 23
53 5
54 19
55 5
56 19
57 5
58 34
59 54
60 20
61 8
62 22
63 22
64 15
65 15
66 12
67 59
68 45
69 18
70 18
71 49
72 49
73 5
74 7
75 78
76 73
77 5
78 5
79 19
80 7
81 16
82 20
83 20
84 20
85 20
86 59
87 7
88 3
89 41
90 7
91 34
92 23
93 41
94 15
95 16
96 16
97 11
98 22
99 12
100 14
101 30
102 20
103 20
104 43
105 32
106 32
107 7
108 7
109 9
<precedence relations>
1,5
2,6
3,7
3,33
4,9
5,10
6,10
7,11
8,12
8,13
9,14
9,15
9,23
9,28
10,16
11,16
11,51
11,52
12,20
13,17
14,18
15,19
16,24
17,21
18,21
19,22
20,25
21,26
22,27
23,29
24,30
25,36
25,49
26,36
26,49
27,36
27,49
28,36
28,49
29,36
29,49
30,31
30,32
30,77
31,37
32,37
33,39
34,40
34,41
35,42
36,43
37,44
38,45
39,51
39,52
40,51
40,52
41,51
41,52
42,47
43,48
44,50
45,50
46,53
47,53
48,53
49,53
50,54
51,55
52,56
53,58
54,59
55,60
56,60
57,62
58,64
59,65
60,66
60,67
61,71
61,72
62,71
62,72
63,68
64,69
65,70
66,71
67,72
68,74
69,75
69,76
70,78
71,79
72,79
72,102
73,80
74,81
75,82
75,97
75,98
75,99
75,100
75,101
76,82
77,82
78,82
79,82
79,109
80,82
81,82
81,93
82,83
82,96
83,84
83,85
84,87
85,87
86,88
87,89
88,91
89,92
90,92
91,94
92,95
93,103
94,104
95,105
96,106
97,107
98,108
<end>